DIMACS_lns/graph-1000-397.col
p edge 1000 1792
e 3 572
e 3 829
e 3 760
e 4 741
e 4 357
e 4 65
e 6 406
e 6 451
e 6 102
e 6 944
e 6 419
e 6 669
e 8 822
e 8 466
e 8 176
e 8 788
e 8 821
e 8 640
e 9 885
e 9 219
e 9 218
e 12 926
e 12 589
e 12 991
e 12 219
e 15 612
e 15 829
e 15 919
e 15 116
e 17 836
e 17 755
e 17 93
e 18 770
e 18 793
e 18 232
e 18 248
e 18 319
e 18 170
e 19 523
e 19 569
e 19 494
e 20 652
e 20 135
e 20 745
e 20 604
e 21 328
e 21 881
e 21 781
e 22 92
e 22 903
e 22 451
e 22 966
e 22 67
e 23 280
e 23 727
e 23 189
e 23 762
e 24 599
e 24 966
e 24 308
e 25 107
e 25 511
e 25 665
e 27 168
e 27 126
e 27 139
e 27 416
e 28 666
e 28 437
e 28 400
e 31 736
e 31 475
e 31 341
e 31 34
e 31 123
e 32 249
e 32 695
e 32 350
e 32 872
e 32 765
e 33 110
e 33 443
e 33 782
e 34 741
e 34 290
e 34 501
e 34 872
e 34 153
e 36 656
e 36 78
e 36 726
e 36 238
e 37 591
e 37 293
e 37 466
e 37 774
e 37 763
e 37 536
e 37 117
e 38 181
e 38 743
e 38 505
e 38 417
e 39 971
e 39 572
e 39 56
e 39 813
e 39 110
e 39 225
e 39 142
e 41 734
e 41 113
e 41 739
e 42 528
e 42 667
e 42 791
e 42 43
e 42 469
e 42 48
e 42 797
e 42 282
e 43 485
e 43 933
e 43 136
e 44 624
e 44 738
e 44 838
e 44 506
e 44 834
e 44 986
e 45 989
e 45 257
e 45 715
e 45 893
e 45 596
e 45 443
e 47 577
e 47 94
e 47 878
e 47 87
e 47 972
e 47 203
e 47 686
e 47 499
e 48 257
e 48 164
e 48 746
e 48 638
e 48 148
e 50 769
e 50 302
e 50 75
e 50 902
e 50 290
e 51 110
e 51 89
e 51 654
e 51 729
e 51 819
e 51 517
e 51 708
e 52 702
e 52 302
e 52 431
e 52 945
e 52 509
e 53 865
e 53 577
e 53 613
e 53 171
e 53 308
e 53 377
e 54 896
e 54 648
e 54 589
e 54 691
e 54 392
e 55 977
e 55 544
e 55 543
e 55 579
e 56 712
e 56 652
e 56 263
e 57 935
e 57 220
e 57 986
e 57 468
e 57 519
e 58 775
e 58 558
e 58 678
e 58 296
e 58 635
e 58 624
e 60 523
e 60 478
e 60 612
e 60 86
e 60 827
e 61 426
e 61 463
e 61 71
e 61 809
e 61 386
e 61 435
e 62 313
e 62 781
e 62 743
e 64 435
e 64 944
e 64 470
e 64 704
e 65 181
e 65 185
e 65 510
e 65 82
e 65 432
e 66 113
e 66 488
e 66 544
e 67 213
e 67 991
e 67 657
e 68 257
e 68 913
e 68 972
e 68 786
e 69 470
e 69 874
e 69 761
e 69 698
e 69 475
e 69 861
e 69 102
e 69 269
e 70 512
e 70 604
e 70 337
e 70 708
e 71 870
e 71 80
e 71 164
e 71 995
e 71 801
e 71 540
e 72 646
e 72 384
e 72 660
e 74 809
e 74 671
e 74 726
e 74 165
e 75 857
e 75 259
e 75 455
e 75 684
e 75 645
e 75 752
e 75 177
e 76 908
e 76 847
e 76 923
e 76 283
e 76 473
e 77 114
e 77 493
e 77 482
e 78 550
e 78 721
e 78 894
e 78 739
e 78 148
e 80 465
e 80 185
e 80 543
e 81 364
e 81 482
e 81 534
e 81 656
e 82 557
e 82 234
e 82 738
e 82 285
e 83 220
e 83 674
e 83 132
e 83 307
e 83 257
e 85 797
e 85 579
e 85 286
e 86 695
e 86 426
e 86 473
e 86 140
e 86 292
e 87 107
e 87 992
e 88 294
e 88 747
e 88 304
e 88 590
e 89 355
e 89 1000
e 89 571
e 89 456
e 89 306
e 89 180
e 90 806
e 90 259
e 90 146
e 90 448
e 90 696
e 90 184
e 90 181
e 90 228
e 91 618
e 91 430
e 91 538
e 91 372
e 92 503
e 92 510
e 92 861
e 93 762
e 93 564
e 93 860
e 94 548
e 94 484
e 94 746
e 94 408
e 94 494
e 94 454
e 96 858
e 96 337
e 96 130
e 97 650
e 97 479
e 97 372
e 97 566
e 97 648
e 98 484
e 98 111
e 98 384
e 98 702
e 100 674
e 100 665
e 100 646
e 101 221
e 101 895
e 101 916
e 101 558
e 102 408
e 102 541
e 102 242
e 103 939
e 103 949
e 103 796
e 106 637
e 106 731
e 106 337
e 106 458
e 107 792
e 107 940
e 107 611
e 109 658
e 109 919
e 109 280
e 109 769
e 110 182
e 110 762
e 111 317
e 111 537
e 112 419
e 112 574
e 112 263
e 112 880
e 113 746
e 113 559
e 113 258
e 114 958
e 114 755
e 115 571
e 115 384
e 115 279
e 115 273
e 115 478
e 116 477
e 116 307
e 116 419
e 116 220
e 116 569
e 117 552
e 117 495
e 117 740
e 118 612
e 118 523
e 118 594
e 118 561
e 118 898
e 118 981
e 120 593
e 120 269
e 120 466
e 120 410
e 120 672
e 120 351
e 120 184
e 120 470
e 121 500
e 121 734
e 121 461
e 121 822
e 121 211
e 121 782
e 121 130
e 121 139
e 123 479
e 123 455
e 123 579
e 123 177
e 123 577
e 124 485
e 124 421
e 124 662
e 124 796
e 124 923
e 124 337
e 126 400
e 126 579
e 126 715
e 126 734
e 126 835
e 127 927
e 127 496
e 127 364
e 127 402
e 130 631
e 130 441
e 130 954
e 131 404
e 131 447
e 131 919
e 131 306
e 132 693
e 132 466
e 132 648
e 132 431
e 132 922
e 133 888
e 133 913
e 133 853
e 133 993
e 133 389
e 133 337
e 133 266
e 135 865
e 135 721
e 135 847
e 136 721
e 136 624
e 136 426
e 137 983
e 137 797
e 137 744
e 137 757
e 137 747
e 137 430
e 138 279
e 138 960
e 138 293
e 138 604
e 139 980
e 140 851
e 140 384
e 140 767
e 140 413
e 141 195
e 141 678
e 141 296
e 141 452
e 142 765
e 142 649
e 142 620
e 143 260
e 143 274
e 143 336
e 143 529
e 145 234
e 145 392
e 145 707
e 145 192
e 146 675
e 146 505
e 146 823
e 146 449
e 146 787
e 147 568
e 147 460
e 147 786
e 148 286
e 148 184
e 148 410
e 148 309
e 148 432
e 150 704
e 150 365
e 150 401
e 150 840
e 151 499
e 151 722
e 151 935
e 151 323
e 152 934
e 152 802
e 152 670
e 152 899
e 152 424
e 153 752
e 153 618
e 155 219
e 155 408
e 155 337
e 155 372
e 155 287
e 156 533
e 156 751
e 156 617
e 156 748
e 156 237
e 158 384
e 158 301
e 158 818
e 158 708
e 158 288
e 158 612
e 158 777
e 164 271
e 164 939
e 164 370
e 164 607
e 164 660
e 165 963
e 165 806
e 165 879
e 165 205
e 165 662
e 165 803
e 165 681
e 168 772
e 168 275
e 168 259
e 168 503
e 170 179
e 170 865
e 170 426
e 170 296
e 171 525
e 171 281
e 171 891
e 175 458
e 175 545
e 175 288
e 175 912
e 175 218
e 175 722
e 176 976
e 176 189
e 176 419
e 176 287
e 177 662
e 177 298
e 177 900
e 178 558
e 178 575
e 178 591
e 178 487
e 178 764
e 178 295
e 179 588
e 179 796
e 180 547
e 180 959
e 180 714
e 180 502
e 181 962
e 182 659
e 182 636
e 183 635
e 183 384
e 183 762
e 184 596
e 184 724
e 184 940
e 184 850
e 185 857
e 186 419
e 186 298
e 186 297
e 186 911
e 189 775
e 189 287
e 189 316
e 189 516
e 189 280
e 191 384
e 191 832
e 191 885
e 192 744
e 192 667
e 192 800
e 192 616
e 192 968
e 192 666
e 192 278
e 194 235
e 194 381
e 194 483
e 194 758
e 195 375
e 195 524
e 196 859
e 196 346
e 196 763
e 203 895
e 203 670
e 203 358
e 203 954
e 205 679
e 205 387
e 205 933
e 205 908
e 205 350
e 206 266
e 206 224
e 206 647
e 206 526
e 208 246
e 208 659
e 208 361
e 208 919
e 209 772
e 209 642
e 209 809
e 209 914
e 209 460
e 209 591
e 209 659
e 211 614
e 211 692
e 211 681
e 211 337
e 211 801
e 211 637
e 212 238
e 212 319
e 212 638
e 212 528
e 212 551
e 213 460
e 213 379
e 213 945
e 213 273
e 213 705
e 214 482
e 214 930
e 214 984
e 214 599
e 214 889
e 214 588
e 218 980
e 218 570
e 218 239
e 219 377
e 219 613
e 219 636
e 219 590
e 220 720
e 221 512
e 221 900
e 221 645
e 223 226
e 223 311
e 223 727
e 223 695
e 224 774
e 224 575
e 224 566
e 224 631
e 225 299
e 225 544
e 225 471
e 225 425
e 226 418
e 226 959
e 228 975
e 228 818
e 228 232
e 232 866
e 232 943
e 232 682
e 232 756
e 233 933
e 233 962
e 233 317
e 233 527
e 233 482
e 233 640
e 234 874
e 234 699
e 234 937
e 235 666
e 235 572
e 237 658
e 237 673
e 237 983
e 238 937
e 238 527
e 238 849
e 238 363
e 238 683
e 239 528
e 239 416
e 239 753
e 239 460
e 239 378
e 239 604
e 241 927
e 241 346
e 241 307
e 242 610
e 242 896
e 242 427
e 242 923
e 242 851
e 243 517
e 243 402
e 243 743
e 243 769
e 243 496
e 243 550
e 243 898
e 243 689
e 246 865
e 246 465
e 246 947
e 247 512
e 247 414
e 247 494
e 248 728
e 248 566
e 248 810
e 248 939
e 249 841
e 249 958
e 250 296
e 250 462
e 250 805
e 250 983
e 251 652
e 251 934
e 251 872
e 252 643
e 252 558
e 252 350
e 252 870
e 252 669
e 253 995
e 253 959
e 253 393
e 253 868
e 253 779
e 255 643
e 255 401
e 255 679
e 255 861
e 255 292
e 256 492
e 256 408
e 256 883
e 256 615
e 256 465
e 257 859
e 257 777
e 257 501
e 257 295
e 258 477
e 258 734
e 258 763
e 258 805
e 259 386
e 259 681
e 259 853
e 259 934
e 260 937
e 260 647
e 260 688
e 260 573
e 260 829
e 260 471
e 262 642
e 262 858
e 262 948
e 262 989
e 263 566
e 263 301
e 263 552
e 263 501
e 263 672
e 266 574
e 266 995
e 266 802
e 266 725
e 267 507
e 267 310
e 267 597
e 267 754
e 267 880
e 267 921
e 268 483
e 268 945
e 268 391
e 268 524
e 269 387
e 271 544
e 271 817
e 271 840
e 271 580
e 273 855
e 274 317
e 274 292
e 274 918
e 274 892
e 274 516
e 274 286
e 275 776
e 275 905
e 275 751
e 275 370
e 275 478
e 277 545
e 277 686
e 277 376
e 278 844
e 278 416
e 278 336
e 278 304
e 278 420
e 279 916
e 279 438
e 279 385
e 279 655
e 279 643
e 279 622
e 280 467
e 280 892
e 281 416
e 281 881
e 281 662
e 282 574
e 282 316
e 283 575
e 283 493
e 283 304
e 283 376
e 283 371
e 283 856
e 285 301
e 285 468
e 285 974
e 285 420
e 285 994
e 285 677
e 287 387
e 287 318
e 287 520
e 287 547
e 288 362
e 288 724
e 288 591
e 290 616
e 290 339
e 290 667
e 290 587
e 290 510
e 290 745
e 292 320
e 292 748
e 292 620
e 293 786
e 294 537
e 294 432
e 294 562
e 295 701
e 295 475
e 296 892
e 296 817
e 296 878
e 296 492
e 297 743
e 297 920
e 297 311
e 297 631
e 298 920
e 299 553
e 299 679
e 300 422
e 300 994
e 300 878
e 301 548
e 301 502
e 301 709
e 301 880
e 301 647
e 302 700
e 303 550
e 303 856
e 303 736
e 303 949
e 303 720
e 304 986
e 305 754
e 305 394
e 305 422
e 306 834
e 306 419
e 308 328
e 308 756
e 308 450
e 309 971
e 309 750
e 309 528
e 309 535
e 309 958
e 310 889
e 310 855
e 311 378
e 311 974
e 312 622
e 312 456
e 312 351
e 313 800
e 313 796
e 313 968
e 313 361
e 314 978
e 314 749
e 314 930
e 314 642
e 316 822
e 316 377
e 316 653
e 316 860
e 317 867
e 317 944
e 317 439
e 318 354
e 318 347
e 319 459
e 319 754
e 319 700
e 320 369
e 320 404
e 320 402
e 320 732
e 320 394
e 320 767
e 323 477
e 323 534
e 323 713
e 324 447
e 324 856
e 324 726
e 325 870
e 325 483
e 325 744
e 325 705
e 326 842
e 326 645
e 326 354
e 326 947
e 326 505
e 327 625
e 327 372
e 327 923
e 328 984
e 329 839
e 329 900
e 329 415
e 329 468
e 329 642
e 329 553
e 329 646
e 329 549
e 333 682
e 333 519
e 333 862
e 333 871
e 335 809
e 335 351
e 335 896
e 336 519
e 336 590
e 336 370
e 336 758
e 337 856
e 337 632
e 337 631
e 338 627
e 338 893
e 338 937
e 338 763
e 338 589
e 338 624
e 338 471
e 339 955
e 339 449
e 339 776
e 339 829
e 339 708
e 340 854
e 340 980
e 340 667
e 341 453
e 341 767
e 341 438
e 341 885
e 341 806
e 345 370
e 345 765
e 345 779
e 346 446
e 346 894
e 346 693
e 346 387
e 347 707
e 347 881
e 347 655
e 347 775
e 347 515
e 349 987
e 349 746
e 349 888
e 349 467
e 350 823
e 350 793
e 351 499
e 351 446
e 351 598
e 351 772
e 353 911
e 353 363
e 353 502
e 354 548
e 354 559
e 354 765
e 354 896
e 354 452
e 355 879
e 355 450
e 355 579
e 355 611
e 357 617
e 357 588
e 357 871
e 358 544
e 358 888
e 358 770
e 360 660
e 360 632
e 360 456
e 361 481
e 362 583
e 362 572
e 362 430
e 363 448
e 363 403
e 364 903
e 365 400
e 365 945
e 366 981
e 366 420
e 366 868
e 369 852
e 369 713
e 369 840
e 370 377
e 370 707
e 370 760
e 370 966
e 371 968
e 371 912
e 371 932
e 372 930
e 372 906
e 372 806
e 374 542
e 374 785
e 374 671
e 374 524
e 375 415
e 375 486
e 376 551
e 376 867
e 376 668
e 377 478
e 377 862
e 377 749
e 377 616
e 378 712
e 378 506
e 379 846
e 379 677
e 380 559
e 380 746
e 380 688
e 380 540
e 381 622
e 381 450
e 381 519
e 384 984
e 384 386
e 384 606
e 385 807
e 385 674
e 385 658
e 386 580
e 386 665
e 386 681
e 387 782
e 387 941
e 387 963
e 389 394
e 389 462
e 389 404
e 389 407
e 389 442
e 389 704
e 391 854
e 391 779
e 391 532
e 391 514
e 391 561
e 392 454
e 393 886
e 393 787
e 393 701
e 393 989
e 394 604
e 394 538
e 396 853
e 396 421
e 396 986
e 398 955
e 398 945
e 398 759
e 400 552
e 400 562
e 400 918
e 401 762
e 401 444
e 401 950
e 402 786
e 402 512
e 403 509
e 403 766
e 403 847
e 403 449
e 403 536
e 404 950
e 404 758
e 404 783
e 406 562
e 406 782
e 407 767
e 407 561
e 407 446
e 407 425
e 408 587
e 409 959
e 409 552
e 409 908
e 409 562
e 410 786
e 410 434
e 413 801
e 413 991
e 413 921
e 414 918
e 414 529
e 415 987
e 415 655
e 415 669
e 416 417
e 416 976
e 416 940
e 416 597
e 416 642
e 417 661
e 418 731
e 418 753
e 418 729
e 418 458
e 418 536
e 419 635
e 419 694
e 420 548
e 420 770
e 421 782
e 421 989
e 422 598
e 422 728
e 424 921
e 424 606
e 424 471
e 424 994
e 425 854
e 425 896
e 425 862
e 426 468
e 426 746
e 427 547
e 427 662
e 427 529
e 427 725
e 427 896
e 428 652
e 428 463
e 428 501
e 430 499
e 430 469
e 430 696
e 431 492
e 431 683
e 432 683
e 434 974
e 434 812
e 434 468
e 434 725
e 434 488
e 434 708
e 435 454
e 435 883
e 435 891
e 437 1000
e 437 455
e 437 548
e 438 763
e 439 853
e 439 692
e 441 949
e 441 922
e 442 461
e 442 691
e 442 818
e 443 471
e 444 459
e 444 960
e 444 576
e 446 749
e 446 541
e 447 991
e 447 517
e 448 944
e 448 827
e 450 668
e 450 512
e 450 805
e 451 502
e 451 809
e 452 736
e 452 463
e 452 529
e 453 941
e 453 722
e 454 544
e 454 670
e 454 573
e 455 544
e 455 546
e 456 526
e 458 726
e 458 614
e 458 538
e 459 850
e 460 792
e 460 822
e 460 486
e 460 593
e 460 705
e 461 856
e 461 727
e 462 922
e 462 886
e 463 899
e 463 914
e 466 515
e 467 540
e 469 551
e 470 886
e 471 695
e 472 798
e 472 696
e 472 661
e 473 761
e 473 835
e 473 907
e 474 867
e 474 770
e 474 479
e 475 488
e 477 650
e 478 503
e 478 918
e 479 850
e 479 853
e 481 502
e 481 674
e 481 538
e 481 940
e 483 691
e 483 893
e 483 919
e 484 935
e 484 485
e 484 966
e 484 577
e 485 1000
e 485 813
e 485 862
e 486 857
e 487 867
e 487 907
e 487 823
e 487 770
e 488 906
e 491 797
e 491 835
e 491 492
e 492 622
e 492 765
e 493 620
e 493 922
e 493 502
e 494 500
e 494 712
e 494 511
e 495 805
e 495 650
e 495 893
e 496 558
e 496 810
e 496 734
e 499 665
e 499 548
e 500 708
e 501 896
e 502 684
e 502 568
e 505 905
e 505 532
e 506 699
e 507 809
e 507 910
e 507 744
e 507 700
e 509 782
e 509 675
e 509 836
e 510 682
e 510 821
e 510 918
e 511 903
e 511 954
e 511 535
e 512 636
e 512 809
e 512 862
e 514 809
e 514 947
e 514 889
e 515 645
e 515 841
e 515 819
e 516 709
e 516 960
e 517 592
e 517 948
e 519 751
e 520 703
e 520 803
e 523 541
e 524 583
e 525 577
e 525 599
e 526 533
e 526 647
e 527 963
e 528 798
e 528 529
e 528 975
e 529 880
e 532 729
e 532 734
e 533 806
e 533 777
e 533 987
e 533 746
e 533 613
e 534 892
e 534 715
e 535 576
e 535 548
e 535 580
e 536 1000
e 537 617
e 537 810
e 537 820
e 538 774
e 540 918
e 541 589
e 541 892
e 541 701
e 542 855
e 542 548
e 542 693
e 542 616
e 542 868
e 542 806
e 542 761
e 543 772
e 545 611
e 545 856
e 546 720
e 546 654
e 547 810
e 547 648
e 548 803
e 549 879
e 549 787
e 550 594
e 550 769
e 550 792
e 551 775
e 551 829
e 552 739
e 552 861
e 552 646
e 552 698
e 553 688
e 554 847
e 554 627
e 554 752
e 557 607
e 557 604
e 558 761
e 558 891
e 558 793
e 559 627
e 559 858
e 561 736
e 561 963
e 561 660
e 561 896
e 561 975
e 562 572
e 564 891
e 564 971
e 568 593
e 568 783
e 569 589
e 569 766
e 570 759
e 570 800
e 571 992
e 571 847
e 572 978
e 572 939
e 572 713
e 573 773
e 573 834
e 574 589
e 574 835
e 575 973
e 576 847
e 576 732
e 576 787
e 576 992
e 577 948
e 577 589
e 579 690
e 579 624
e 580 835
e 583 926
e 585 704
e 585 847
e 585 642
e 587 962
e 587 751
e 590 943
e 590 782
e 590 751
e 591 702
e 592 822
e 592 852
e 592 745
e 593 911
e 594 993
e 594 702
e 594 752
e 596 766
e 597 945
e 597 838
e 598 801
e 599 640
e 604 622
e 604 937
e 606 640
e 607 916
e 610 776
e 610 652
e 613 941
e 614 849
e 615 682
e 615 838
e 616 673
e 617 721
e 617 986
e 618 625
e 618 674
e 620 919
e 622 812
e 624 885
e 624 781
e 624 632
e 624 745
e 624 910
e 624 867
e 625 732
e 625 720
e 627 902
e 631 867
e 631 796
e 631 901
e 632 690
e 632 922
e 632 713
e 632 914
e 632 705
e 635 684
e 636 741
e 636 965
e 637 753
e 637 819
e 638 786
e 638 894
e 640 981
e 640 971
e 640 834
e 645 941
e 646 695
e 646 903
e 646 701
e 647 865
e 649 675
e 649 986
e 649 920
e 649 786
e 650 689
e 650 666
e 650 654
e 650 734
e 652 776
e 652 826
e 653 722
e 653 725
e 653 919
e 653 661
e 654 993
e 654 861
e 654 786
e 655 965
e 655 972
e 655 785
e 656 937
e 656 972
e 657 971
e 657 751
e 659 907
e 659 947
e 659 987
e 660 713
e 660 841
e 661 977
e 661 842
e 665 896
e 665 949
e 665 791
e 666 758
e 668 820
e 668 854
e 668 766
e 668 980
e 668 839
e 669 852
e 669 678
e 669 690
e 670 681
e 670 821
e 670 783
e 671 827
e 671 959
e 672 977
e 673 812
e 674 712
e 674 764
e 674 762
e 675 813
e 675 821
e 677 905
e 678 782
e 681 812
e 682 776
e 683 703
e 683 757
e 684 821
e 684 962
e 686 720
e 689 927
e 692 980
e 692 888
e 693 906
e 693 817
e 694 756
e 694 809
e 694 813
e 695 870
e 695 851
e 696 708
e 696 788
e 696 785
e 698 937
e 698 934
e 699 972
e 699 748
e 699 945
e 700 943
e 700 959
e 701 705
e 702 880
e 702 757
e 703 754
e 703 888
e 705 918
e 705 842
e 708 773
e 709 767
e 712 745
e 712 905
e 713 751
e 714 727
e 714 866
e 714 861
e 714 785
e 715 874
e 720 994
e 721 881
e 721 741
e 722 757
e 722 788
e 724 747
e 724 820
e 725 839
e 726 860
e 728 926
e 731 908
e 731 891
e 731 740
e 732 844
e 732 881
e 734 769
e 736 893
e 738 950
e 738 865
e 738 847
e 740 796
e 740 902
e 741 911
e 743 960
e 743 921
e 744 866
e 744 793
e 744 781
e 745 939
e 746 901
e 746 838
e 750 911
e 750 918
e 751 758
e 751 791
e 751 764
e 753 798
e 754 880
e 754 973
e 755 922
e 756 807
e 757 922
e 759 773
e 759 981
e 759 832
e 760 891
e 764 788
e 765 907
e 765 974
e 767 900
e 769 826
e 770 800
e 772 976
e 774 878
e 774 788
e 776 900
e 781 930
e 781 791
e 781 881
e 783 856
e 783 910
e 783 918
e 785 852
e 787 819
e 791 826
e 791 895
e 791 992
e 792 950
e 793 797
e 798 923
e 798 801
e 802 803
e 803 905
e 805 826
e 805 829
e 806 932
e 807 1000
e 810 955
e 813 954
e 818 871
e 820 892
e 822 943
e 822 856
e 823 866
e 829 836
e 829 859
e 832 958
e 836 846
e 836 944
e 836 874
e 839 846
e 842 965
e 844 906
e 849 941
e 850 948
e 851 976
e 852 868
e 852 981
e 858 977
e 860 901
e 862 870
e 867 945
e 868 978
e 871 898
e 878 987
e 879 919
e 881 981
e 881 930
e 883 960
e 885 954
e 886 973
e 888 930
e 889 984
e 889 972
e 892 940
e 894 994
e 895 898
e 899 974
e 902 926
e 908 930
e 912 963
e 913 922
e 927 965
e 927 962
e 932 987
e 965 972
e 977 986
