txt_Ins/graph-1000-397.txt
n 1000
e 2 571
e 2 828
e 2 759
e 3 740
e 3 356
e 3 64
e 5 405
e 5 450
e 5 101
e 5 943
e 5 418
e 5 668
e 7 821
e 7 465
e 7 175
e 7 787
e 7 820
e 7 639
e 8 884
e 8 218
e 8 217
e 11 925
e 11 588
e 11 990
e 11 218
e 14 611
e 14 828
e 14 918
e 14 115
e 16 835
e 16 754
e 16 92
e 17 769
e 17 792
e 17 231
e 17 247
e 17 318
e 17 169
e 18 522
e 18 568
e 18 493
e 19 651
e 19 134
e 19 744
e 19 603
e 20 327
e 20 880
e 20 780
e 21 91
e 21 902
e 21 450
e 21 965
e 21 66
e 22 279
e 22 726
e 22 188
e 22 761
e 23 598
e 23 965
e 23 307
e 24 106
e 24 510
e 24 664
e 26 167
e 26 125
e 26 138
e 26 415
e 27 665
e 27 436
e 27 399
e 30 735
e 30 474
e 30 340
e 30 33
e 30 122
e 31 248
e 31 694
e 31 349
e 31 871
e 31 764
e 32 109
e 32 442
e 32 781
e 33 740
e 33 289
e 33 500
e 33 871
e 33 152
e 35 655
e 35 77
e 35 725
e 35 237
e 36 590
e 36 292
e 36 465
e 36 773
e 36 762
e 36 535
e 36 116
e 37 180
e 37 742
e 37 504
e 37 416
e 38 970
e 38 571
e 38 55
e 38 812
e 38 109
e 38 224
e 38 141
e 40 733
e 40 112
e 40 738
e 41 527
e 41 666
e 41 790
e 41 42
e 41 468
e 41 47
e 41 796
e 41 281
e 42 484
e 42 932
e 42 135
e 43 623
e 43 737
e 43 837
e 43 505
e 43 833
e 43 985
e 44 988
e 44 256
e 44 714
e 44 892
e 44 595
e 44 442
e 46 576
e 46 93
e 46 877
e 46 86
e 46 971
e 46 202
e 46 685
e 46 498
e 47 256
e 47 163
e 47 745
e 47 637
e 47 147
e 49 768
e 49 301
e 49 74
e 49 901
e 49 289
e 50 109
e 50 88
e 50 653
e 50 728
e 50 818
e 50 516
e 50 707
e 51 701
e 51 301
e 51 430
e 51 944
e 51 508
e 52 864
e 52 576
e 52 612
e 52 170
e 52 307
e 52 376
e 53 895
e 53 647
e 53 588
e 53 690
e 53 391
e 54 976
e 54 543
e 54 542
e 54 578
e 55 711
e 55 651
e 55 262
e 56 934
e 56 219
e 56 985
e 56 467
e 56 518
e 57 774
e 57 557
e 57 677
e 57 295
e 57 634
e 57 623
e 59 522
e 59 477
e 59 611
e 59 85
e 59 826
e 60 425
e 60 462
e 60 70
e 60 808
e 60 385
e 60 434
e 61 312
e 61 780
e 61 742
e 63 434
e 63 943
e 63 469
e 63 703
e 64 180
e 64 184
e 64 509
e 64 81
e 64 431
e 65 112
e 65 487
e 65 543
e 66 212
e 66 990
e 66 656
e 67 256
e 67 912
e 67 971
e 67 785
e 68 469
e 68 873
e 68 760
e 68 697
e 68 474
e 68 860
e 68 101
e 68 268
e 69 511
e 69 603
e 69 336
e 69 707
e 70 869
e 70 79
e 70 163
e 70 994
e 70 800
e 70 539
e 71 645
e 71 383
e 71 659
e 73 808
e 73 670
e 73 725
e 73 164
e 74 856
e 74 258
e 74 454
e 74 683
e 74 644
e 74 751
e 74 176
e 75 907
e 75 846
e 75 922
e 75 282
e 75 472
e 76 113
e 76 492
e 76 481
e 77 549
e 77 720
e 77 893
e 77 738
e 77 147
e 79 464
e 79 184
e 79 542
e 80 363
e 80 481
e 80 533
e 80 655
e 81 556
e 81 233
e 81 737
e 81 284
e 82 219
e 82 673
e 82 131
e 82 306
e 82 256
e 84 796
e 84 578
e 84 285
e 85 694
e 85 425
e 85 472
e 85 139
e 85 291
e 86 106
e 86 991
e 87 293
e 87 746
e 87 303
e 87 589
e 88 354
e 88 999
e 88 570
e 88 455
e 88 305
e 88 179
e 89 805
e 89 258
e 89 145
e 89 447
e 89 695
e 89 183
e 89 180
e 89 227
e 90 617
e 90 429
e 90 537
e 90 371
e 91 502
e 91 509
e 91 860
e 92 761
e 92 563
e 92 859
e 93 547
e 93 483
e 93 745
e 93 407
e 93 493
e 93 453
e 95 857
e 95 336
e 95 129
e 96 649
e 96 478
e 96 371
e 96 565
e 96 647
e 97 483
e 97 110
e 97 383
e 97 701
e 99 673
e 99 664
e 99 645
e 100 220
e 100 894
e 100 915
e 100 557
e 101 407
e 101 540
e 101 241
e 102 938
e 102 948
e 102 795
e 105 636
e 105 730
e 105 336
e 105 457
e 106 791
e 106 939
e 106 610
e 108 657
e 108 918
e 108 279
e 108 768
e 109 181
e 109 761
e 110 316
e 110 536
e 111 418
e 111 573
e 111 262
e 111 879
e 112 745
e 112 558
e 112 257
e 113 957
e 113 754
e 114 570
e 114 383
e 114 278
e 114 272
e 114 477
e 115 476
e 115 306
e 115 418
e 115 219
e 115 568
e 116 551
e 116 494
e 116 739
e 117 611
e 117 522
e 117 593
e 117 560
e 117 897
e 117 980
e 119 592
e 119 268
e 119 465
e 119 409
e 119 671
e 119 350
e 119 183
e 119 469
e 120 499
e 120 733
e 120 460
e 120 821
e 120 210
e 120 781
e 120 129
e 120 138
e 122 478
e 122 454
e 122 578
e 122 176
e 122 576
e 123 484
e 123 420
e 123 661
e 123 795
e 123 922
e 123 336
e 125 399
e 125 578
e 125 714
e 125 733
e 125 834
e 126 926
e 126 495
e 126 363
e 126 401
e 129 630
e 129 440
e 129 953
e 130 403
e 130 446
e 130 918
e 130 305
e 131 692
e 131 465
e 131 647
e 131 430
e 131 921
e 132 887
e 132 912
e 132 852
e 132 992
e 132 388
e 132 336
e 132 265
e 134 864
e 134 720
e 134 846
e 135 720
e 135 623
e 135 425
e 136 982
e 136 796
e 136 743
e 136 756
e 136 746
e 136 429
e 137 278
e 137 959
e 137 292
e 137 603
e 138 979
e 139 850
e 139 383
e 139 766
e 139 412
e 140 194
e 140 677
e 140 295
e 140 451
e 141 764
e 141 648
e 141 619
e 142 259
e 142 273
e 142 335
e 142 528
e 144 233
e 144 391
e 144 706
e 144 191
e 145 674
e 145 504
e 145 822
e 145 448
e 145 786
e 146 567
e 146 459
e 146 785
e 147 285
e 147 183
e 147 409
e 147 308
e 147 431
e 149 703
e 149 364
e 149 400
e 149 839
e 150 498
e 150 721
e 150 934
e 150 322
e 151 933
e 151 801
e 151 669
e 151 898
e 151 423
e 152 751
e 152 617
e 154 218
e 154 407
e 154 336
e 154 371
e 154 286
e 155 532
e 155 750
e 155 616
e 155 747
e 155 236
e 157 383
e 157 300
e 157 817
e 157 707
e 157 287
e 157 611
e 157 776
e 163 270
e 163 938
e 163 369
e 163 606
e 163 659
e 164 962
e 164 805
e 164 878
e 164 204
e 164 661
e 164 802
e 164 680
e 167 771
e 167 274
e 167 258
e 167 502
e 169 178
e 169 864
e 169 425
e 169 295
e 170 524
e 170 280
e 170 890
e 174 457
e 174 544
e 174 287
e 174 911
e 174 217
e 174 721
e 175 975
e 175 188
e 175 418
e 175 286
e 176 661
e 176 297
e 176 899
e 177 557
e 177 574
e 177 590
e 177 486
e 177 763
e 177 294
e 178 587
e 178 795
e 179 546
e 179 958
e 179 713
e 179 501
e 180 961
e 181 658
e 181 635
e 182 634
e 182 383
e 182 761
e 183 595
e 183 723
e 183 939
e 183 849
e 184 856
e 185 418
e 185 297
e 185 296
e 185 910
e 188 774
e 188 286
e 188 315
e 188 515
e 188 279
e 190 383
e 190 831
e 190 884
e 191 743
e 191 666
e 191 799
e 191 615
e 191 967
e 191 665
e 191 277
e 193 234
e 193 380
e 193 482
e 193 757
e 194 374
e 194 523
e 195 858
e 195 345
e 195 762
e 202 894
e 202 669
e 202 357
e 202 953
e 204 678
e 204 386
e 204 932
e 204 907
e 204 349
e 205 265
e 205 223
e 205 646
e 205 525
e 207 245
e 207 658
e 207 360
e 207 918
e 208 771
e 208 641
e 208 808
e 208 913
e 208 459
e 208 590
e 208 658
e 210 613
e 210 691
e 210 680
e 210 336
e 210 800
e 210 636
e 211 237
e 211 318
e 211 637
e 211 527
e 211 550
e 212 459
e 212 378
e 212 944
e 212 272
e 212 704
e 213 481
e 213 929
e 213 983
e 213 598
e 213 888
e 213 587
e 217 979
e 217 569
e 217 238
e 218 376
e 218 612
e 218 635
e 218 589
e 219 719
e 220 511
e 220 899
e 220 644
e 222 225
e 222 310
e 222 726
e 222 694
e 223 773
e 223 574
e 223 565
e 223 630
e 224 298
e 224 543
e 224 470
e 224 424
e 225 417
e 225 958
e 227 974
e 227 817
e 227 231
e 231 865
e 231 942
e 231 681
e 231 755
e 232 932
e 232 961
e 232 316
e 232 526
e 232 481
e 232 639
e 233 873
e 233 698
e 233 936
e 234 665
e 234 571
e 236 657
e 236 672
e 236 982
e 237 936
e 237 526
e 237 848
e 237 362
e 237 682
e 238 527
e 238 415
e 238 752
e 238 459
e 238 377
e 238 603
e 240 926
e 240 345
e 240 306
e 241 609
e 241 895
e 241 426
e 241 922
e 241 850
e 242 516
e 242 401
e 242 742
e 242 768
e 242 495
e 242 549
e 242 897
e 242 688
e 245 864
e 245 464
e 245 946
e 246 511
e 246 413
e 246 493
e 247 727
e 247 565
e 247 809
e 247 938
e 248 840
e 248 957
e 249 295
e 249 461
e 249 804
e 249 982
e 250 651
e 250 933
e 250 871
e 251 642
e 251 557
e 251 349
e 251 869
e 251 668
e 252 994
e 252 958
e 252 392
e 252 867
e 252 778
e 254 642
e 254 400
e 254 678
e 254 860
e 254 291
e 255 491
e 255 407
e 255 882
e 255 614
e 255 464
e 256 858
e 256 776
e 256 500
e 256 294
e 257 476
e 257 733
e 257 762
e 257 804
e 258 385
e 258 680
e 258 852
e 258 933
e 259 936
e 259 646
e 259 687
e 259 572
e 259 828
e 259 470
e 261 641
e 261 857
e 261 947
e 261 988
e 262 565
e 262 300
e 262 551
e 262 500
e 262 671
e 265 573
e 265 994
e 265 801
e 265 724
e 266 506
e 266 309
e 266 596
e 266 753
e 266 879
e 266 920
e 267 482
e 267 944
e 267 390
e 267 523
e 268 386
e 270 543
e 270 816
e 270 839
e 270 579
e 272 854
e 273 316
e 273 291
e 273 917
e 273 891
e 273 515
e 273 285
e 274 775
e 274 904
e 274 750
e 274 369
e 274 477
e 276 544
e 276 685
e 276 375
e 277 843
e 277 415
e 277 335
e 277 303
e 277 419
e 278 915
e 278 437
e 278 384
e 278 654
e 278 642
e 278 621
e 279 466
e 279 891
e 280 415
e 280 880
e 280 661
e 281 573
e 281 315
e 282 574
e 282 492
e 282 303
e 282 375
e 282 370
e 282 855
e 284 300
e 284 467
e 284 973
e 284 419
e 284 993
e 284 676
e 286 386
e 286 317
e 286 519
e 286 546
e 287 361
e 287 723
e 287 590
e 289 615
e 289 338
e 289 666
e 289 586
e 289 509
e 289 744
e 291 319
e 291 747
e 291 619
e 292 785
e 293 536
e 293 431
e 293 561
e 294 700
e 294 474
e 295 891
e 295 816
e 295 877
e 295 491
e 296 742
e 296 919
e 296 310
e 296 630
e 297 919
e 298 552
e 298 678
e 299 421
e 299 993
e 299 877
e 300 547
e 300 501
e 300 708
e 300 879
e 300 646
e 301 699
e 302 549
e 302 855
e 302 735
e 302 948
e 302 719
e 303 985
e 304 753
e 304 393
e 304 421
e 305 833
e 305 418
e 307 327
e 307 755
e 307 449
e 308 970
e 308 749
e 308 527
e 308 534
e 308 957
e 309 888
e 309 854
e 310 377
e 310 973
e 311 621
e 311 455
e 311 350
e 312 799
e 312 795
e 312 967
e 312 360
e 313 977
e 313 748
e 313 929
e 313 641
e 315 821
e 315 376
e 315 652
e 315 859
e 316 866
e 316 943
e 316 438
e 317 353
e 317 346
e 318 458
e 318 753
e 318 699
e 319 368
e 319 403
e 319 401
e 319 731
e 319 393
e 319 766
e 322 476
e 322 533
e 322 712
e 323 446
e 323 855
e 323 725
e 324 869
e 324 482
e 324 743
e 324 704
e 325 841
e 325 644
e 325 353
e 325 946
e 325 504
e 326 624
e 326 371
e 326 922
e 327 983
e 328 838
e 328 899
e 328 414
e 328 467
e 328 641
e 328 552
e 328 645
e 328 548
e 332 681
e 332 518
e 332 861
e 332 870
e 334 808
e 334 350
e 334 895
e 335 518
e 335 589
e 335 369
e 335 757
e 336 855
e 336 631
e 336 630
e 337 626
e 337 892
e 337 936
e 337 762
e 337 588
e 337 623
e 337 470
e 338 954
e 338 448
e 338 775
e 338 828
e 338 707
e 339 853
e 339 979
e 339 666
e 340 452
e 340 766
e 340 437
e 340 884
e 340 805
e 344 369
e 344 764
e 344 778
e 345 445
e 345 893
e 345 692
e 345 386
e 346 706
e 346 880
e 346 654
e 346 774
e 346 514
e 348 986
e 348 745
e 348 887
e 348 466
e 349 822
e 349 792
e 350 498
e 350 445
e 350 597
e 350 771
e 352 910
e 352 362
e 352 501
e 353 547
e 353 558
e 353 764
e 353 895
e 353 451
e 354 878
e 354 449
e 354 578
e 354 610
e 356 616
e 356 587
e 356 870
e 357 543
e 357 887
e 357 769
e 359 659
e 359 631
e 359 455
e 360 480
e 361 582
e 361 571
e 361 429
e 362 447
e 362 402
e 363 902
e 364 399
e 364 944
e 365 980
e 365 419
e 365 867
e 368 851
e 368 712
e 368 839
e 369 376
e 369 706
e 369 759
e 369 965
e 370 967
e 370 911
e 370 931
e 371 929
e 371 905
e 371 805
e 373 541
e 373 784
e 373 670
e 373 523
e 374 414
e 374 485
e 375 550
e 375 866
e 375 667
e 376 477
e 376 861
e 376 748
e 376 615
e 377 711
e 377 505
e 378 845
e 378 676
e 379 558
e 379 745
e 379 687
e 379 539
e 380 621
e 380 449
e 380 518
e 383 983
e 383 385
e 383 605
e 384 806
e 384 673
e 384 657
e 385 579
e 385 664
e 385 680
e 386 781
e 386 940
e 386 962
e 388 393
e 388 461
e 388 403
e 388 406
e 388 441
e 388 703
e 390 853
e 390 778
e 390 531
e 390 513
e 390 560
e 391 453
e 392 885
e 392 786
e 392 700
e 392 988
e 393 603
e 393 537
e 395 852
e 395 420
e 395 985
e 397 954
e 397 944
e 397 758
e 399 551
e 399 561
e 399 917
e 400 761
e 400 443
e 400 949
e 401 785
e 401 511
e 402 508
e 402 765
e 402 846
e 402 448
e 402 535
e 403 949
e 403 757
e 403 782
e 405 561
e 405 781
e 406 766
e 406 560
e 406 445
e 406 424
e 407 586
e 408 958
e 408 551
e 408 907
e 408 561
e 409 785
e 409 433
e 412 800
e 412 990
e 412 920
e 413 917
e 413 528
e 414 986
e 414 654
e 414 668
e 415 416
e 415 975
e 415 939
e 415 596
e 415 641
e 416 660
e 417 730
e 417 752
e 417 728
e 417 457
e 417 535
e 418 634
e 418 693
e 419 547
e 419 769
e 420 781
e 420 988
e 421 597
e 421 727
e 423 920
e 423 605
e 423 470
e 423 993
e 424 853
e 424 895
e 424 861
e 425 467
e 425 745
e 426 546
e 426 661
e 426 528
e 426 724
e 426 895
e 427 651
e 427 462
e 427 500
e 429 498
e 429 468
e 429 695
e 430 491
e 430 682
e 431 682
e 433 973
e 433 811
e 433 467
e 433 724
e 433 487
e 433 707
e 434 453
e 434 882
e 434 890
e 436 999
e 436 454
e 436 547
e 437 762
e 438 852
e 438 691
e 440 948
e 440 921
e 441 460
e 441 690
e 441 817
e 442 470
e 443 458
e 443 959
e 443 575
e 445 748
e 445 540
e 446 990
e 446 516
e 447 943
e 447 826
e 449 667
e 449 511
e 449 804
e 450 501
e 450 808
e 451 735
e 451 462
e 451 528
e 452 940
e 452 721
e 453 543
e 453 669
e 453 572
e 454 543
e 454 545
e 455 525
e 457 725
e 457 613
e 457 537
e 458 849
e 459 791
e 459 821
e 459 485
e 459 592
e 459 704
e 460 855
e 460 726
e 461 921
e 461 885
e 462 898
e 462 913
e 465 514
e 466 539
e 468 550
e 469 885
e 470 694
e 471 797
e 471 695
e 471 660
e 472 760
e 472 834
e 472 906
e 473 866
e 473 769
e 473 478
e 474 487
e 476 649
e 477 502
e 477 917
e 478 849
e 478 852
e 480 501
e 480 673
e 480 537
e 480 939
e 482 690
e 482 892
e 482 918
e 483 934
e 483 484
e 483 965
e 483 576
e 484 999
e 484 812
e 484 861
e 485 856
e 486 866
e 486 906
e 486 822
e 486 769
e 487 905
e 490 796
e 490 834
e 490 491
e 491 621
e 491 764
e 492 619
e 492 921
e 492 501
e 493 499
e 493 711
e 493 510
e 494 804
e 494 649
e 494 892
e 495 557
e 495 809
e 495 733
e 498 664
e 498 547
e 499 707
e 500 895
e 501 683
e 501 567
e 504 904
e 504 531
e 505 698
e 506 808
e 506 909
e 506 743
e 506 699
e 508 781
e 508 674
e 508 835
e 509 681
e 509 820
e 509 917
e 510 902
e 510 953
e 510 534
e 511 635
e 511 808
e 511 861
e 513 808
e 513 946
e 513 888
e 514 644
e 514 840
e 514 818
e 515 708
e 515 959
e 516 591
e 516 947
e 518 750
e 519 702
e 519 802
e 522 540
e 523 582
e 524 576
e 524 598
e 525 532
e 525 646
e 526 962
e 527 797
e 527 528
e 527 974
e 528 879
e 531 728
e 531 733
e 532 805
e 532 776
e 532 986
e 532 745
e 532 612
e 533 891
e 533 714
e 534 575
e 534 547
e 534 579
e 535 999
e 536 616
e 536 809
e 536 819
e 537 773
e 539 917
e 540 588
e 540 891
e 540 700
e 541 854
e 541 547
e 541 692
e 541 615
e 541 867
e 541 805
e 541 760
e 542 771
e 544 610
e 544 855
e 545 719
e 545 653
e 546 809
e 546 647
e 547 802
e 548 878
e 548 786
e 549 593
e 549 768
e 549 791
e 550 774
e 550 828
e 551 738
e 551 860
e 551 645
e 551 697
e 552 687
e 553 846
e 553 626
e 553 751
e 556 606
e 556 603
e 557 760
e 557 890
e 557 792
e 558 626
e 558 857
e 560 735
e 560 962
e 560 659
e 560 895
e 560 974
e 561 571
e 563 890
e 563 970
e 567 592
e 567 782
e 568 588
e 568 765
e 569 758
e 569 799
e 570 991
e 570 846
e 571 977
e 571 938
e 571 712
e 572 772
e 572 833
e 573 588
e 573 834
e 574 972
e 575 846
e 575 731
e 575 786
e 575 991
e 576 947
e 576 588
e 578 689
e 578 623
e 579 834
e 582 925
e 584 703
e 584 846
e 584 641
e 586 961
e 586 750
e 589 942
e 589 781
e 589 750
e 590 701
e 591 821
e 591 851
e 591 744
e 592 910
e 593 992
e 593 701
e 593 751
e 595 765
e 596 944
e 596 837
e 597 800
e 598 639
e 603 621
e 603 936
e 605 639
e 606 915
e 609 775
e 609 651
e 612 940
e 613 848
e 614 681
e 614 837
e 615 672
e 616 720
e 616 985
e 617 624
e 617 673
e 619 918
e 621 811
e 623 884
e 623 780
e 623 631
e 623 744
e 623 909
e 623 866
e 624 731
e 624 719
e 626 901
e 630 866
e 630 795
e 630 900
e 631 689
e 631 921
e 631 712
e 631 913
e 631 704
e 634 683
e 635 740
e 635 964
e 636 752
e 636 818
e 637 785
e 637 893
e 639 980
e 639 970
e 639 833
e 644 940
e 645 694
e 645 902
e 645 700
e 646 864
e 648 674
e 648 985
e 648 919
e 648 785
e 649 688
e 649 665
e 649 653
e 649 733
e 651 775
e 651 825
e 652 721
e 652 724
e 652 918
e 652 660
e 653 992
e 653 860
e 653 785
e 654 964
e 654 971
e 654 784
e 655 936
e 655 971
e 656 970
e 656 750
e 658 906
e 658 946
e 658 986
e 659 712
e 659 840
e 660 976
e 660 841
e 664 895
e 664 948
e 664 790
e 665 757
e 667 819
e 667 853
e 667 765
e 667 979
e 667 838
e 668 851
e 668 677
e 668 689
e 669 680
e 669 820
e 669 782
e 670 826
e 670 958
e 671 976
e 672 811
e 673 711
e 673 763
e 673 761
e 674 812
e 674 820
e 676 904
e 677 781
e 680 811
e 681 775
e 682 702
e 682 756
e 683 820
e 683 961
e 685 719
e 688 926
e 691 979
e 691 887
e 692 905
e 692 816
e 693 755
e 693 808
e 693 812
e 694 869
e 694 850
e 695 707
e 695 787
e 695 784
e 697 936
e 697 933
e 698 971
e 698 747
e 698 944
e 699 942
e 699 958
e 700 704
e 701 879
e 701 756
e 702 753
e 702 887
e 704 917
e 704 841
e 707 772
e 708 766
e 711 744
e 711 904
e 712 750
e 713 726
e 713 865
e 713 860
e 713 784
e 714 873
e 719 993
e 720 880
e 720 740
e 721 756
e 721 787
e 723 746
e 723 819
e 724 838
e 725 859
e 727 925
e 730 907
e 730 890
e 730 739
e 731 843
e 731 880
e 733 768
e 735 892
e 737 949
e 737 864
e 737 846
e 739 795
e 739 901
e 740 910
e 742 959
e 742 920
e 743 865
e 743 792
e 743 780
e 744 938
e 745 900
e 745 837
e 749 910
e 749 917
e 750 757
e 750 790
e 750 763
e 752 797
e 753 879
e 753 972
e 754 921
e 755 806
e 756 921
e 758 772
e 758 980
e 758 831
e 759 890
e 763 787
e 764 906
e 764 973
e 766 899
e 768 825
e 769 799
e 771 975
e 773 877
e 773 787
e 775 899
e 780 929
e 780 790
e 780 880
e 782 855
e 782 909
e 782 917
e 784 851
e 786 818
e 790 825
e 790 894
e 790 991
e 791 949
e 792 796
e 797 922
e 797 800
e 801 802
e 802 904
e 804 825
e 804 828
e 805 931
e 806 999
e 809 954
e 812 953
e 817 870
e 819 891
e 821 942
e 821 855
e 822 865
e 828 835
e 828 858
e 831 957
e 835 845
e 835 943
e 835 873
e 838 845
e 841 964
e 843 905
e 848 940
e 849 947
e 850 975
e 851 867
e 851 980
e 857 976
e 859 900
e 861 869
e 866 944
e 867 977
e 870 897
e 877 986
e 878 918
e 880 980
e 880 929
e 882 959
e 884 953
e 885 972
e 887 929
e 888 983
e 888 971
e 891 939
e 893 993
e 894 897
e 898 973
e 901 925
e 907 929
e 911 962
e 912 921
e 926 964
e 926 961
e 931 986
e 964 971
e 976 985
